0	8.1
1	22
2	23
3	23
4	24
5	3.1
6	7.1
7	15
8	2.1
9	14
10	7.1
11	3.1
12	19
13	15
14	2.1
15	9.1
16	23
17	19
18	25
19	1.1
20	3.1
21	24
22	0.1
23	15
24	13
25	0.1
26	11
27	15
28	22
29	23
30	15
31	21
32	6.1
33	10
